Set parameter TokenServer to value "hpc-licenses.hpcc.usc.edu"
Set parameter TimeLimit to value 3600
Gurobi Optimizer version 9.5.1 build v9.5.1rc2 (linux64)
Thread count: 20 physical cores, 20 logical processors, using up to 20 threads
Optimize a model with 14014 rows, 10581 columns and 61098 nonzeros
Model fingerprint: 0x5ed06221
Variable types: 10514 continuous, 67 integer (67 binary)
Coefficient statistics:
  Matrix range     [1e+00, 1e+00]
  Objective range  [3e-03, 1e+00]
  Bounds range     [1e+00, 1e+00]
  RHS range        [1e+00, 1e+00]
Presolve removed 3091 rows and 3070 columns
Presolve time: 0.32s
Presolved: 10923 rows, 7511 columns, 56251 nonzeros
Variable types: 7451 continuous, 60 integer (60 binary)
Found heuristic solution: objective 228.0351767
Found heuristic solution: objective 233.2459819

Root relaxation: objective 2.390030e+02, 2267 iterations, 0.09 seconds (0.07 work units)

    Nodes    |    Current Node    |     Objective Bounds      |     Work
 Expl Unexpl |  Obj  Depth IntInf | Incumbent    BestBd   Gap | It/Node Time

     0     0  239.00298    0    4  233.24598  239.00298  2.47%     -    0s
H    0     0                     237.4647914  239.00298  0.65%     -    0s
     0     0  239.00298    0    9  237.46479  239.00298  0.65%     -    1s
     0     0  239.00298    0    2  237.46479  239.00298  0.65%     -    1s
H    0     0                     237.5729523  238.97004  0.59%     -    2s
     0     0  238.95855    0    6  237.57295  238.95855  0.58%     -    2s
     0     0  238.92213    0    7  237.57295  238.92213  0.57%     -    2s
     0     0  238.83526    0    6  237.57295  238.83526  0.53%     -    2s
H    0     0                     237.5752124  238.64293  0.45%     -    3s
     0     0  238.64293    0    8  237.57521  238.64293  0.45%     -    3s
     0     0  238.60304    0    9  237.57521  238.60304  0.43%     -    3s
     0     0  238.57358    0    9  237.57521  238.57358  0.42%     -    3s
     0     2  238.57358    0    9  237.57521  238.57358  0.42%     -    3s
    25    10  238.57358    6    9  237.57521  238.57358  0.42%   452    5s
   384     3  238.12718   21    4  237.57521  238.12718  0.23%   133   10s

Cutting planes:
  MIR: 21
  Flow cover: 9
  RLT: 4
  Relax-and-lift: 3

Explored 412 nodes (59813 simplex iterations) in 10.46 seconds (4.06 work units)
Thread count was 20 (of 20 available processors)

Solution count 5: 237.575 237.573 237.465 ... 228.035

Optimal solution found (tolerance 1.00e-04)
Best objective 2.375752123858e+02, best bound 2.375752123858e+02, gap 0.0000%



#########node  1
V2.7
#########node  2
V1.5
#########node  3
V1.4
#########node  4
0.0,1.0
#########node  5
1.0,0.0
#########node  6
0.0,1.0
#########node  7
1.0,0.0


Total Solving Time 11.332612037658691
obj value 237.5752123857567
Policy Regret train (Sum) 0.5911248142838529
Best Treatment Found train (%) 89.2
treatment classification acc train (%) 27.400000000000002
Policy Regret test (Sum) 11.494719123936783
Best Treatment Found test (%) 89.82
treatment classification acc test (%) 28.52
Set parameter TokenServer to value "hpc-licenses.hpcc.usc.edu"
Set parameter TimeLimit to value 3600
Gurobi Optimizer version 9.5.1 build v9.5.1rc2 (linux64)
Thread count: 20 physical cores, 20 logical processors, using up to 20 threads
Optimize a model with 14014 rows, 10581 columns and 61098 nonzeros
Model fingerprint: 0x5ed06221
Variable types: 10514 continuous, 67 integer (67 binary)
Coefficient statistics:
  Matrix range     [1e+00, 1e+00]
  Objective range  [3e-03, 1e+00]
  Bounds range     [1e+00, 1e+00]
  RHS range        [1e+00, 1e+00]
Presolve removed 3091 rows and 3070 columns
Presolve time: 0.22s
Presolved: 10923 rows, 7511 columns, 56251 nonzeros
Variable types: 7451 continuous, 60 integer (60 binary)
Found heuristic solution: objective 228.0351767
Found heuristic solution: objective 233.2459819

Root relaxation: objective 2.390030e+02, 2267 iterations, 0.06 seconds (0.07 work units)

    Nodes    |    Current Node    |     Objective Bounds      |     Work
 Expl Unexpl |  Obj  Depth IntInf | Incumbent    BestBd   Gap | It/Node Time

     0     0  239.00298    0    4  233.24598  239.00298  2.47%     -    0s
H    0     0                     237.4647914  239.00298  0.65%     -    0s
     0     0  239.00298    0    9  237.46479  239.00298  0.65%     -    1s
     0     0  239.00298    0    2  237.46479  239.00298  0.65%     -    1s
H    0     0                     237.5729523  238.97004  0.59%     -    1s
     0     0  238.95855    0    6  237.57295  238.95855  0.58%     -    1s
     0     0  238.92213    0    7  237.57295  238.92213  0.57%     -    2s
     0     0  238.83526    0    6  237.57295  238.83526  0.53%     -    2s
H    0     0                     237.5752124  238.64293  0.45%     -    3s
     0     0  238.64293    0    8  237.57521  238.64293  0.45%     -    3s
     0     0  238.60304    0    9  237.57521  238.60304  0.43%     -    3s
     0     0  238.57358    0    9  237.57521  238.57358  0.42%     -    3s
     0     2  238.57358    0    9  237.57521  238.57358  0.42%     -    3s
    11     8  238.57358    4    8  237.57521  238.57358  0.42%   614    5s
   273    17  237.76815   19    2  237.57521  238.42243  0.36%   155   10s

Cutting planes:
  MIR: 21
  Flow cover: 9
  RLT: 4
  Relax-and-lift: 3

Explored 412 nodes (59813 simplex iterations) in 11.40 seconds (4.06 work units)
Thread count was 20 (of 20 available processors)

Solution count 5: 237.575 237.573 237.465 ... 228.035

Optimal solution found (tolerance 1.00e-04)
Best objective 2.375752123858e+02, best bound 2.375752123858e+02, gap 0.0000%



#########node  1
V2.7
#########node  2
V1.5
#########node  3
V1.4
#########node  4
0.0,1.0
#########node  5
1.0,0.0
#########node  6
0.0,1.0
#########node  7
1.0,0.0


Total Solving Time 12.339234590530396
obj value 237.5752123857567
Policy Regret train (Sum) 0.5911248142838529
Best Treatment Found train (%) 89.2
treatment classification acc train (%) 27.400000000000002
Policy Regret test (Sum) 11.494719123936783
Best Treatment Found test (%) 89.82
treatment classification acc test (%) 28.52
